0000000000000000
0000000000000000
0000000000000000
0000001000000000
0000001000000000
0000001000000000
0000001111111100
0000000000001100
0000000000001100
0000000000001100
0000000000001100
0000000000011100
0000000000111000
0000000111110000
0000001111000000
0000000000000000
